15 4 
3232	3232	3232	3232	
599	300	481	
922	465	674	
853	43	78	
903	402	780	
382	265	361	
350	875	1164	
379	818	879	
747	984	1037	
109	799	935	
483	70	92	
911	5	8	
528	1	1	
980	670	1248	
905	768	789	
228	0	0	
